NAME : XML100_1162_16
DIMENSION : 101
NB_CLUSTERS : 12
CLUSTERING_ALG : DBSCAN
CLUSTERING_PARAMS : eps(100), minSamples(3)
CLUSTERS
1 0
2 1 2 12 14 22 30 32 41 45 49 62 73 74 77 81 86 90
3 3 38 56 70 78 92 96 97
4 5 11 13 18 19 24 34 37 40 42 51 52 54 55 58 61 64 79 84 93 99 100
5 6 8 10 15 16 17 25 36 39 66 71 75 80
6 7 23 29 60 67 72 85 89 91 95
7 9 27 43 46 48 57 63 65 68 87 98
8 20 47 59 83 94
9 21 31 33
10 4 26 28 76
11 35 53 69 82 88
12 44 50
EOF